$rem
JOBTYPE OPT
EXCHANGE B3LYP
BASIS 6-31+G**
MAX_SCF_CYCLES 200
$end

$opt
CONSTRAINT
tors 10 9 6 8 0.0
ENDCONSTRAINT
$end

$molecule
#charge spinmultiplicity
0 1
 C -2.628436 3.711272 -0.102115
 C -1.264416 4.132381 -0.134903
 C -0.349035 3.073101 -0.008896
 S -1.261640 1.694824 0.133919
 C -2.792372 2.328934 0.049002
 C 1.138992 3.142172 -0.002431
 S 2.049627 4.523130 -0.136965
 C 3.581195 3.892062 -0.058050
 C 3.419811 2.508829 0.082994
 C 2.056482 2.083705 0.114786
 C 1.647938 0.645547 0.257560
 C 2.817544 -0.318145 0.362281
 C 2.278388 -1.726068 0.491148
 C 3.425659 -2.706182 0.601407
 C 2.870252 -4.108489 0.731874
 C 4.011331 -5.096033 0.848854
 C -0.848645 5.566225 -0.290738
 C -2.002584 6.544337 -0.423356
 C -1.423235 7.933926 -0.578449
 C -2.529765 8.952255 -0.740694
 C -1.909197 10.324846 -0.897149
 C -2.998273 11.360509 -1.074642
$end
