$rem
JOBTYPE OPT
EXCHANGE B3LYP
BASIS 6-31+G**
MAX_SCF_CYCLES 200
$end

$opt
CONSTRAINT
tors 6 3 10 2 0.0
ENDCONSTRAINT
$end

$molecule
#charge spinmultiplicity
0 1
 C -2.588516 3.933269 -0.125923
 C -1.212228 4.334861 -0.150067
 C -0.318405 3.241166 -0.008349
 S -1.272901 1.885676 0.132885
 C -2.775262 2.562196 0.030396
 C 1.179147 3.253103 0.014032
 S 2.132707 4.611342 -0.106688
 C 3.635473 3.934782 -0.015930
 C 3.449974 2.561267 0.117382
 C 2.073914 2.157868 0.136319
 C 1.632064 0.714175 0.269514
 C 2.778171 -0.303368 0.377951
 C 2.236343 -1.732874 0.501127
 C 3.381775 -2.747085 0.604026
 C 2.841897 -4.176742 0.724034
 C 3.979948 -5.188326 0.824744
 C -0.768190 5.774511 -0.313364
 C -1.910319 6.791425 -0.461313
 C -1.359790 8.213298 -0.628396
 C -2.496822 9.230127 -0.783109
 C -1.944068 10.649867 -0.953543
 C -3.072028 11.665393 -1.110729
 H 4.583241 4.454312 -0.053083
 H 4.286605 1.881796 0.197150
 H 1.027453 0.454000 -0.625696
 H 1.005214 0.624775 1.182497
 H 3.414807 -0.237231 -0.531900
 H 3.393050 -0.071505 1.275496
 H 1.597146 -1.806994 1.408616
 H 1.617338 -1.968972 -0.392611
 H 4.020813 -2.671907 -0.303575
 H 4.000959 -2.512284 1.497990
 H 2.224685 -4.419335 -0.168486
 H 2.205359 -4.261067 1.631796
 H 4.620423 -5.140504 -0.081717
 H 4.601520 -4.982299 1.722126
 H -3.723531 2.044125 0.074951
 H -3.424171 4.612328 -0.218905
 H -0.170022 6.057153 0.579267
 H -0.134409 5.838544 -1.223781
 H -2.518427 6.533055 -1.356251
 H -2.555012 6.756976 0.444539
 H -0.710201 8.251188 -1.530796
 H -0.749089 8.478039 0.263017
 H -3.107168 8.965006 -1.674680
 H -3.146823 9.194714 0.119045
 H -1.295406 10.692568 -1.855685
 H -1.336088 10.923672 -0.063734
 H -3.683250 11.427783 -2.007431
 H -2.643011 12.682315 -1.232399
 H -3.724746 11.659839 -0.211866
 H 3.560899 -6.213039 0.910110
$end
